Reproduction of the Original Problem/results-log/S1-5/S1-5-5-2-l.log
CPXPARAM_Read_DataCheck                          1
Found incumbent of value 0.000000 after 0.00 sec. (0.02 ticks)
Tried aggregator 1 time.
MIP Presolve modified 1 coefficients.
Reduced MIP has 116 rows, 505 columns, and 2515 nonzeros.
Reduced MIP has 505 binaries, 0 generals, 0 SOSs, and 0 indicators.
Presolve time = 0.02 sec. (1.04 ticks)
Probing time = 0.00 sec. (0.74 ticks)
Tried aggregator 1 time.
Reduced MIP has 116 rows, 505 columns, and 2515 nonzeros.
Reduced MIP has 505 binaries, 0 generals, 0 SOSs, and 0 indicators.
Presolve time = 0.00 sec. (1.23 ticks)
Probing time = 0.00 sec. (0.74 ticks)
Clique table members: 500.
MIP emphasis: balance optimality and feasibility.
MIP search method: dynamic search.
Parallel mode: deterministic, using up to 4 threads.
Root relaxation solution time = 0.00 sec. (1.05 ticks)

        Nodes                                         Cuts/
   Node  Left     Objective  IInf  Best Integer    Best Bound    ItCnt     Gap

*     0+    0                            0.0000     2984.0000              --- 
      0     0     1504.1900     5        0.0000     1504.1900      161     --- 
*     0+    0                          829.0000     1504.1900            81.45%
      0     0     1015.2282   128      829.0000     Cuts: 134      424   22.46%
      0     0      895.5637   255      829.0000     Cuts: 131      639    8.03%
*     0+    0                          878.0000      895.5637             2.00%
      0     0      881.1158   267      878.0000      Cuts: 29      674    0.35%
      0     0        cutoff            878.0000                    685     --- 
Elapsed time = 0.06 sec. (49.90 ticks, tree = 0.01 MB, solutions = 3)

GUB cover cuts applied:  1
Clique cuts applied:  237
Cover cuts applied:  9
Flow cuts applied:  1
Mixed integer rounding cuts applied:  12
Zero-half cuts applied:  3

Root node processing (before b&c):
  Real time             =    0.06 sec. (49.94 ticks)
Parallel b&c, 4 threads:
  Real time             =    0.00 sec. (0.00 ticks)
  Sync time (average)   =    0.00 sec.
  Wait time (average)   =    0.00 sec.
                          ------------
Total (root+branch&cut) =    0.06 sec. (49.94 ticks)
